(set-logic ALL)
(declare-const x String)
(declare-const y String)
(assert (str.in_re x (re.* (re.union (str.to_re "hhhh::::vvvv]]]]") (str.to_re "111122223333")))))
(assert (= 44 (str.len x)))
(assert (not (= x "hhhh::::vvvv]]]]111122223333hhhh::::vvvv]]]]")))
(assert (not (= x "hhhh::::vvvv]]]]hhhh::::vvvv]]]]111122223333")))
(check-sat)
